<number of tasks>
100

<cycle time>
1000

<order strength>
0.601


<task times>
1 177
2 198
3 167
4 160
5 132
6 161
7 40
8 138
9 135
10 62
11 252
12 128
13 35
14 80
15 235
16 133
17 263
18 227
19 39
20 109
21 40
22 142
23 121
24 136
25 304
26 43
27 346
28 70
29 204
30 164
31 204
32 36
33 62
34 154
35 143
36 68
37 313
38 69
39 114
40 67
41 50
42 64
43 89
44 81
45 37
46 106
47 98
48 252
49 39
50 32
51 237
52 93
53 175
54 77
55 70
56 133
57 139
58 77
59 272
60 20
61 154
62 135
63 252
64 255
65 76
66 208
67 33
68 88
69 28
70 125
71 21
72 42
73 211
74 127
75 77
76 29
77 86
78 159
79 123
80 56
81 93
82 166
83 125
84 187
85 267
86 449
87 42
88 158
89 115
90 156
91 123
92 112
93 229
94 131
95 203
96 259
97 160
98 190
99 91
100 101

<precedence relations>
1,34
2,34
3,20
4,5
4,6
4,7
4,8
4,9
4,10
5,90
6,90
7,20
8,20
9,20
10,11
10,12
10,13
10,14
10,15
10,16
10,17
11,90
12,90
13,65
14,65
15,20
16,51
17,18
17,19
17,21
17,22
17,23
17,35
18,34
19,34
20,24
20,25
20,26
20,27
20,28
20,29
20,30
20,31
20,32
21,24
21,33
21,36
22,84
23,92
24,34
25,51
26,43
26,70
26,83
27,34
27,35
28,34
28,35
28,44
29,61
29,85
30,52
30,60
30,69
31,34
31,36
32,34
32,35
32,36
33,46
33,49
34,37
34,38
34,39
34,40
34,41
34,42
34,43
34,45
35,51
36,43
36,44
37,46
38,46
39,48
41,60
42,47
42,49
43,65
44,48
44,49
45,48
45,50
46,51
47,51
48,51
49,50
49,52
49,60
49,68
49,69
50,90
51,53
51,54
51,55
51,56
51,57
51,58
51,59
51,60
52,53
52,66
53,65
54,63
54,67
55,65
55,83
56,61
56,64
56,65
58,83
59,62
59,65
59,66
59,69
59,83
60,61
60,62
60,63
61,90
62,90
63,65
64,66
64,67
64,68
64,69
65,71
65,72
65,73
65,74
65,75
65,76
65,77
65,78
65,79
65,80
65,81
65,82
66,70
67,83
68,70
68,83
68,84
68,85
69,88
70,90
71,85
71,86
73,89
74,89
77,84
81,84
82,88
82,90
84,86
84,87
84,88
85,87
85,89
86,90
87,91
89,92
90,93
90,94
90,95
90,96
90,97
90,98
90,99
90,100

<end>
